41, 2572
3668, 1124
2655, 1475
4537, 3801
2582, 3874
4776, 2048
4906, 1907
5601, 1462
2250, 3126
1299, 4080
3336, 4842
2237, 4759
3606, 1789
4452, 1321
1741, 4903
5174, 2988
2655, 4922
4926, 4390
3548, 4981
2167, 4674
5330, 3250
5000, 1616
3056, 1668
4177, 3993
3357, 1720
3664, 2015
4811, 3582
5654, 4612
3699, 4690
2496, 3124
1514, 1073
3444, 1358
3163, 3209
3141, 2447
1413, 1179
3000, 4106
3009, 3811
1473, 1254
2476, 3719
4339, 4112
3702, 2932
4250, 3443